p tdp 40 39
1 8
1 31
2 12
2 28
3 13
3 25
4 24
4 30
5 6
5 35
6 9
7 12
7 21
8 11
9 40
10 31
10 36
11 20
13 38
14 16
14 18
15 17
15 24
16 38
17 33
18 32
19 30
19 39
20 33
21 27
22 23
22 37
26 35
26 39
27 34
28 29
29 40
32 34
36 37
